ilp_joint_2/output/condensation_ilp.lp
Maximize
  0.00730932430410391 Z_71_1_0 + 0.00288695292379165 Z_71_1_1
   + 0.0102568558588054 Z_71_1_2 + 0.3994945728368538 Z_71_1_3
Subject To
 constraint1_711: Z_71_1_0 + Z_71_1_1 + Z_71_1_2 + Z_71_1_3 <= 1
 constraint2_730: <= 1
 constraint2_731: <= 1
 constraint2_732: <= 1
 constraint2_733: <= 1
 constraint2_710: Z_71_1_0 <= 1
 constraint2_711: Z_71_1_1 <= 1
 constraint2_712: Z_71_1_2 <= 1
 constraint2_713: Z_71_1_3 <= 1
 constraint2_1190: <= 1
 constraint2_1191: <= 1
 constraint2_1192: <= 1
 constraint2_1193: <= 1
 constraint2_100: <= 1
 constraint2_101: <= 1
 constraint2_102: <= 1
 constraint2_103: <= 1
Bounds
Binaries
 Z_71_1_0 Z_71_1_1 Z_71_1_2 Z_71_1_3
End
