ilp_joint_2/output/condensation_ilp.mps
NAME condensation_srl_ilp
* Max problem is converted into Min one
ROWS
 N  OBJ
 L  constraint1_711
 L  constraint2_730
 L  constraint2_731
 L  constraint2_732
 L  constraint2_733
 L  constraint2_710
 L  constraint2_711
 L  constraint2_712
 L  constraint2_713
 L  constraint2_1190
 L  constraint2_1191
 L  constraint2_1192
 L  constraint2_1193
 L  constraint2_100
 L  constraint2_101
 L  constraint2_102
 L  constraint2_103
COLUMNS
    MARKER    'MARKER'                 'INTORG'
    Z_71_1_0  OBJ       -7.3093243041039146e-03
    Z_71_1_0  constraint1_711  1
    Z_71_1_0  constraint2_710  1
    Z_71_1_1  OBJ       -2.8869529237916525e-03
    Z_71_1_1  constraint1_711  1
    Z_71_1_1  constraint2_711  1
    Z_71_1_2  OBJ       -1.0256855858805369e-02
    Z_71_1_2  constraint1_711  1
    Z_71_1_2  constraint2_712  1
    Z_71_1_3  OBJ       -3.9949457283685380e-01
    Z_71_1_3  constraint1_711  1
    Z_71_1_3  constraint2_713  1
    MARKER    'MARKER'                 'INTEND'
RHS
    RHS1      constraint1_711  1
    RHS1      constraint2_730  1
    RHS1      constraint2_731  1
    RHS1      constraint2_732  1
    RHS1      constraint2_733  1
    RHS1      constraint2_710  1
    RHS1      constraint2_711  1
    RHS1      constraint2_712  1
    RHS1      constraint2_713  1
    RHS1      constraint2_1190  1
    RHS1      constraint2_1191  1
    RHS1      constraint2_1192  1
    RHS1      constraint2_1193  1
    RHS1      constraint2_100  1
    RHS1      constraint2_101  1
    RHS1      constraint2_102  1
    RHS1      constraint2_103  1
BOUNDS
 UP BND1      Z_71_1_0  1
 UP BND1      Z_71_1_1  1
 UP BND1      Z_71_1_2  1
 UP BND1      Z_71_1_3  1
ENDATA
