ilp_joint_2/output/condensation_ilp.sol
# Solution for model condensation_srl_ilp
# Objective value = 3.9949457283685380e-01
Z_71_1_0 0
Z_71_1_1 0
Z_71_1_2 0
Z_71_1_3 1
